NAME: ch30
TYPE: TSP
COMMENT: 30 city problem (COMP5511 AI)
DIMENSION: 10
EDGE_WEIGHT_TYPE: EUC_2D
NODE_COORD_SECTION
11 0.55734239 0.3734466
12 0.17159294 0.74191892
13 0.93544974 0.56202886
14 0.25549663 0.33219349
15 0.79861833 0.62468121
16 0.43550307 0.79565317
17 0.28996519 0.78996215
18 0.60465238 0.55241916
19 0.68390503 0.44588774
20 0.41480951 0.5742657
21 0.8418194  0.93056216
22 0.63967639 0.05641035
23 0.63442911 0.67639771
24 0.34127487 0.92429178
25 0.33030165 0.015116
26 0.95044247 0.91669319
27 0.55421018 0.82146014
28 0.0589178  0.59854411
29 0.42909831 0.84349374
30 0.77765192 0.55528108
EOF
